c turning on binary mode checking
c parsing input formula with 202048 variables and 780975 clauses
c finished parsing, read 19515865 bytes from proof file
c detected empty clause; start verification via backward checking
c 29441 of 780975 clauses in core                            
c 44833 of 507721 lemmas in core using 516823 resolution steps
c 0 RAT lemmas in core; 4925 redundant literals in core lemmas
s VERIFIED
c verification time: 2.931 seconds
